************************************************************************
file with basedata            : mm30_.bas
initial value random generator: 1769258131
************************************************************************
projects                      :  1
jobs (incl. supersource/sink ):  12
horizon                       :  76
RESOURCES
  - renewable                 :  2   R
  - nonrenewable              :  2   N
  - doubly constrained        :  0   D
************************************************************************
PROJECT INFORMATION:
pronr.  #jobs rel.date duedate tardcost  MPM-Time
    1     10      0       14        1       14
************************************************************************
PRECEDENCE RELATIONS:
jobnr.    #modes  #successors   successors
   0        1          3           1   2   3
   1        3          3           4   6   8
   2        3          2           5   6
   3        3          2           9  10
   4        3          2           5   9
   5        3          1           7
   6        3          1          10
   7        3          1          10
   8        3          1          11
   9        3          1          11
  10        3          1          11
  11        1          0        
************************************************************************
REQUESTS/DURATIONS:
jobnr. mode duration  R 1  R 2  R 3  R 4  E(W 1)
------------------------------------------------------------------------
  0      1     0       0    0    0    0     0
  1      1     2       3    0    9    6    36
  2      1     2       0    7    5    3    30
  3      1     1      10    0   10   10    30
  4      1     3       7    0    3    4    42
  5      1     3       0    2    3    7    36
  6      1     1       8    0    6    6    20
  7      1     1       0    9    6    6    21
  8      1     3       0    8    5    2    45
  9      1     1       4    0    5    9    18
 10      1     5       2    0    5    9    80
 11      1     0       0    0    0    0     0
************************************************************************
RESOURCEAVAILABILITIES:
  R 1
   135
************************************************************************
RESOURCE LIMITS:
jobnr.  l(R 1)  u(R 1)
------------------------------------------------------------------------
  0        0       0
  1       10      18
  2        9      15
  3       15      30
  4        8      14
  5        7      12
  6       10      20
  7       11      21
  8        8      15
  9       10      18
 10        9      16
 11        0       0
************************************************************************
SCENARIOS:
------------------------------------------------------------------------
RESOURCE k = 1
s = 1: (0, 33, 34, 21, 31, 29, 26, 33, 78, 24, 94, 0)
s = 2: (0, 26, 56, 26, 32, 38, 23, 19, 47, 17, 58, 0)
s = 3: (0, 34, 30, 28, 24, 48, 11, 27, 66, 19, 101, 0)
s = 4: (0, 52, 20, 42, 53, 37, 23, 14, 40, 12, 65, 0)
s = 5: (0, 31, 22, 22, 29, 55, 12, 15, 45, 11, 70, 0)
s = 6: (0, 22, 32, 27, 40, 36, 13, 26, 51, 15, 88, 0)
s = 7: (0, 33, 28, 19, 28, 36, 18, 19, 40, 17, 51, 0)
s = 8: (0, 46, 21, 35, 31, 40, 16, 19, 39, 27, 80, 0)
s = 9: (0, 38, 35, 24, 43, 26, 17, 17, 47, 22, 98, 0)
s = 10: (0, 32, 36, 27, 24, 32, 18, 21, 40, 16, 73, 0)
s = 11: (0, 39, 35, 48, 45, 36, 14, 21, 45, 15, 77, 0)
s = 12: (0, 25, 29, 35, 42, 30, 23, 16, 65, 14, 59, 0)
s = 13: (0, 45, 30, 40, 35, 24, 25, 19, 41, 14, 49, 0)
s = 14: (0, 37, 25, 34, 34, 26, 32, 14, 59, 16, 48, 0)
s = 15: (0, 40, 22, 37, 37, 28, 27, 21, 44, 23, 106, 0)
s = 16: (0, 26, 22, 26, 29, 56, 23, 17, 36, 26, 56, 0)
s = 17: (0, 21, 31, 30, 35, 25, 23, 21, 40, 28, 80, 0)
s = 18: (0, 50, 17, 39, 56, 38, 25, 21, 51, 10, 52, 0)
s = 19: (0, 39, 37, 36, 41, 22, 15, 13, 34, 22, 54, 0)
s = 20: (0, 36, 27, 27, 29, 50, 21, 17, 42, 15, 67, 0)
s = 21: (0, 41, 23, 18, 52, 25, 34, 24, 57, 10, 67, 0)
s = 22: (0, 27, 23, 21, 59, 44, 23, 32, 57, 18, 110, 0)
s = 23: (0, 47, 21, 38, 36, 27, 18, 26, 70, 21, 77, 0)
s = 24: (0, 43, 19, 18, 36, 25, 20, 19, 33, 11, 67, 0)
s = 25: (0, 39, 21, 36, 40, 52, 23, 22, 67, 16, 78, 0)
s = 26: (0, 21, 32, 19, 50, 52, 18, 14, 43, 23, 63, 0)
s = 27: (0, 40, 27, 21, 55, 26, 18, 37, 39, 13, 93, 0)
s = 28: (0, 27, 35, 23, 59, 41, 18, 20, 49, 28, 59, 0)
s = 29: (0, 46, 33, 45, 70, 34, 15, 22, 56, 20, 95, 0)
s = 30: (0, 25, 39, 50, 43, 51, 19, 21, 35, 21, 90, 0)
s = 31: (0, 35, 24, 40, 58, 51, 20, 14, 38, 13, 55, 0)
s = 32: (0, 27, 28, 21, 31, 35, 28, 19, 54, 14, 97, 0)
s = 33: (0, 26, 28, 23, 45, 31, 14, 19, 43, 30, 123, 0)
s = 34: (0, 26, 30, 26, 62, 51, 15, 21, 38, 12, 53, 0)
s = 35: (0, 32, 24, 51, 74, 27, 21, 23, 52, 12, 84, 0)
s = 36: (0, 42, 24, 20, 37, 51, 19, 16, 69, 15, 93, 0)
s = 37: (0, 33, 39, 31, 25, 34, 19, 18, 24, 20, 72, 0)
s = 38: (0, 37, 25, 20, 33, 33, 17, 30, 54, 17, 74, 0)
s = 39: (0, 68, 31, 32, 32, 69, 20, 27, 48, 18, 104, 0)
s = 40: (0, 46, 26, 44, 45, 35, 25, 16, 37, 16, 80, 0)
s = 41: (0, 43, 30, 43, 44, 36, 18, 27, 47, 12, 147, 0)
s = 42: (0, 35, 29, 37, 35, 21, 19, 17, 46, 11, 87, 0)
s = 43: (0, 51, 19, 20, 28, 25, 28, 18, 71, 11, 62, 0)
s = 44: (0, 40, 23, 33, 45, 29, 28, 26, 33, 18, 92, 0)
s = 45: (0, 20, 42, 36, 47, 36, 12, 35, 41, 15, 112, 0)
s = 46: (0, 41, 38, 31, 41, 36, 30, 24, 47, 22, 68, 0)
s = 47: (0, 54, 30, 46, 44, 33, 24, 19, 45, 27, 62, 0)
s = 48: (0, 39, 22, 30, 37, 42, 29, 17, 64, 14, 73, 0)
s = 49: (0, 26, 37, 23, 60, 45, 25, 21, 37, 16, 62, 0)
s = 50: (0, 36, 19, 23, 48, 29, 19, 35, 40, 18, 61, 0)
s = 51: (0, 26, 29, 31, 41, 31, 14, 23, 71, 22, 60, 0)
s = 52: (0, 27, 33, 26, 32, 48, 30, 17, 44, 12, 68, 0)
s = 53: (0, 39, 40, 28, 59, 32, 18, 20, 39, 13, 93, 0)
s = 54: (0, 38, 26, 30, 53, 29, 18, 20, 58, 15, 92, 0)
s = 55: (0, 27, 19, 26, 64, 23, 15, 31, 31, 23, 92, 0)
s = 56: (0, 28, 40, 49, 41, 48, 15, 15, 32, 32, 55, 0)
s = 57: (0, 42, 20, 24, 34, 50, 23, 31, 49, 25, 123, 0)
s = 58: (0, 27, 22, 43, 43, 34, 35, 17, 38, 18, 72, 0)
s = 59: (0, 32, 19, 26, 71, 34, 19, 18, 43, 18, 50, 0)
s = 60: (0, 22, 29, 48, 59, 54, 16, 18, 49, 16, 46, 0)
s = 61: (0, 52, 23, 30, 40, 28, 22, 21, 68, 13, 53, 0)
s = 62: (0, 35, 31, 30, 54, 22, 21, 26, 44, 17, 73, 0)
s = 63: (0, 49, 24, 25, 35, 40, 23, 19, 42, 26, 77, 0)
s = 64: (0, 30, 21, 25, 43, 41, 37, 22, 35, 28, 120, 0)
s = 65: (0, 54, 47, 23, 29, 43, 15, 16, 33, 21, 101, 0)
s = 66: (0, 37, 22, 45, 23, 25, 15, 20, 35, 28, 47, 0)
s = 67: (0, 24, 35, 39, 56, 43, 27, 12, 41, 16, 47, 0)
s = 68: (0, 38, 27, 26, 31, 61, 14, 15, 35, 19, 80, 0)
s = 69: (0, 34, 25, 26, 44, 39, 19, 16, 48, 23, 79, 0)
s = 70: (0, 27, 33, 36, 38, 56, 22, 37, 45, 21, 100, 0)
s = 71: (0, 48, 35, 19, 35, 38, 15, 18, 32, 18, 68, 0)
s = 72: (0, 38, 27, 42, 45, 27, 14, 28, 75, 28, 107, 0)
s = 73: (0, 32, 24, 23, 68, 29, 26, 26, 40, 25, 79, 0)
s = 74: (0, 44, 23, 30, 26, 35, 18, 24, 58, 18, 81, 0)
s = 75: (0, 41, 27, 35, 47, 44, 13, 15, 44, 15, 75, 0)
s = 76: (0, 20, 31, 18, 33, 22, 20, 16, 50, 30, 96, 0)
s = 77: (0, 45, 34, 23, 40, 43, 13, 22, 31, 16, 83, 0)
s = 78: (0, 39, 26, 38, 48, 44, 21, 37, 44, 13, 102, 0)
s = 79: (0, 57, 42, 26, 34, 26, 16, 18, 53, 17, 77, 0)
s = 80: (0, 39, 17, 44, 39, 35, 20, 13, 69, 23, 70, 0)
s = 81: (0, 28, 24, 45, 38, 50, 29, 25, 62, 22, 92, 0)
s = 82: (0, 24, 22, 19, 39, 53, 20, 24, 60, 21, 93, 0)
s = 83: (0, 21, 32, 23, 32, 32, 32, 22, 58, 15, 66, 0)
s = 84: (0, 29, 43, 23, 58, 43, 18, 15, 38, 10, 71, 0)
s = 85: (0, 29, 32, 21, 51, 32, 13, 13, 28, 16, 69, 0)
s = 86: (0, 25, 40, 32, 31, 54, 23, 32, 58, 21, 101, 0)
s = 87: (0, 28, 26, 30, 28, 32, 11, 25, 37, 14, 117, 0)
s = 88: (0, 23, 27, 26, 43, 39, 25, 16, 69, 15, 112, 0)
s = 89: (0, 39, 39, 25, 46, 33, 17, 26, 43, 20, 98, 0)
s = 90: (0, 43, 38, 26, 28, 22, 19, 20, 67, 12, 46, 0)
s = 91: (0, 39, 33, 35, 45, 38, 20, 20, 51, 15, 66, 0)
s = 92: (0, 23, 22, 17, 32, 39, 23, 27, 50, 13, 50, 0)
s = 93: (0, 34, 27, 26, 37, 36, 19, 21, 30, 20, 94, 0)
s = 94: (0, 28, 35, 21, 74, 33, 25, 17, 49, 18, 72, 0)
s = 95: (0, 38, 26, 45, 53, 22, 14, 20, 65, 17, 58, 0)
s = 96: (0, 32, 26, 46, 40, 30, 18, 19, 37, 17, 72, 0)
s = 97: (0, 30, 24, 26, 30, 26, 20, 23, 37, 17, 92, 0)
s = 98: (0, 23, 33, 34, 44, 47, 18, 18, 61, 19, 98, 0)
s = 99: (0, 56, 25, 24, 41, 38, 25, 29, 57, 19, 48, 0)
s = 100: (0, 46, 21, 20, 29, 47, 17, 27, 53, 28, 54, 0)
s = 101: (0, 36, 41, 37, 39, 36, 31, 17, 44, 22, 103, 0)
s = 102: (0, 55, 24, 23, 27, 24, 23, 36, 43, 16, 68, 0)
s = 103: (0, 30, 42, 41, 33, 37, 20, 30, 71, 21, 69, 0)
s = 104: (0, 23, 35, 39, 28, 30, 19, 26, 49, 20, 101, 0)
s = 105: (0, 25, 35, 45, 39, 46, 16, 14, 47, 20, 80, 0)
s = 106: (0, 47, 35, 24, 45, 23, 15, 28, 41, 27, 58, 0)
s = 107: (0, 35, 33, 37, 52, 40, 25, 17, 35, 13, 62, 0)
s = 108: (0, 49, 31, 28, 55, 37, 16, 12, 55, 17, 74, 0)
s = 109: (0, 36, 31, 27, 28, 34, 16, 34, 31, 13, 59, 0)
s = 110: (0, 38, 36, 31, 53, 38, 22, 23, 48, 12, 66, 0)
s = 111: (0, 26, 23, 37, 61, 40, 30, 15, 27, 17, 115, 0)
s = 112: (0, 38, 38, 35, 45, 49, 15, 30, 54, 17, 99, 0)
s = 113: (0, 41, 34, 33, 28, 27, 22, 18, 49, 12, 58, 0)
s = 114: (0, 48, 38, 30, 48, 26, 26, 20, 41, 26, 109, 0)
s = 115: (0, 52, 20, 22, 35, 59, 15, 16, 75, 24, 137, 0)
s = 116: (0, 35, 39, 37, 31, 38, 13, 16, 24, 13, 91, 0)
s = 117: (0, 24, 35, 36, 52, 21, 12, 15, 27, 24, 72, 0)
s = 118: (0, 29, 27, 22, 53, 50, 14, 22, 38, 21, 47, 0)
s = 119: (0, 30, 24, 18, 42, 54, 19, 20, 39, 19, 69, 0)
s = 120: (0, 24, 34, 39, 32, 45, 30, 18, 43, 14, 74, 0)
s = 121: (0, 25, 25, 55, 43, 36, 17, 22, 40, 26, 82, 0)
s = 122: (0, 30, 26, 46, 70, 50, 20, 21, 50, 24, 112, 0)
s = 123: (0, 21, 33, 27, 36, 40, 13, 14, 35, 12, 71, 0)
s = 124: (0, 44, 29, 41, 43, 35, 28, 29, 54, 21, 132, 0)
s = 125: (0, 25, 26, 24, 22, 37, 19, 27, 65, 16, 113, 0)
s = 126: (0, 40, 36, 20, 51, 22, 17, 23, 56, 11, 108, 0)
s = 127: (0, 41, 22, 45, 29, 47, 23, 30, 31, 16, 50, 0)
s = 128: (0, 33, 30, 23, 48, 30, 27, 14, 33, 15, 73, 0)
s = 129: (0, 46, 33, 25, 50, 45, 14, 25, 36, 27, 57, 0)
s = 130: (0, 21, 22, 28, 41, 20, 28, 22, 72, 16, 91, 0)
s = 131: (0, 36, 19, 38, 46, 54, 30, 17, 47, 20, 58, 0)
s = 132: (0, 32, 23, 25, 44, 64, 24, 27, 40, 12, 57, 0)
s = 133: (0, 39, 20, 51, 46, 36, 17, 21, 38, 16, 63, 0)
s = 134: (0, 35, 28, 19, 22, 46, 23, 27, 94, 10, 60, 0)
s = 135: (0, 22, 39, 43, 25, 43, 17, 20, 28, 22, 114, 0)
s = 136: (0, 39, 26, 18, 30, 32, 19, 22, 55, 14, 73, 0)
s = 137: (0, 26, 28, 21, 46, 20, 13, 41, 46, 12, 55, 0)
s = 138: (0, 37, 27, 35, 42, 32, 25, 22, 38, 30, 81, 0)
s = 139: (0, 31, 35, 38, 30, 36, 17, 20, 51, 14, 84, 0)
s = 140: (0, 31, 18, 22, 31, 34, 18, 16, 30, 15, 122, 0)
s = 141: (0, 54, 34, 26, 56, 25, 13, 22, 56, 19, 74, 0)
s = 142: (0, 42, 26, 37, 52, 34, 18, 20, 44, 15, 105, 0)
s = 143: (0, 47, 34, 33, 25, 33, 13, 24, 46, 29, 60, 0)
s = 144: (0, 69, 30, 25, 61, 29, 20, 25, 42, 15, 49, 0)
s = 145: (0, 29, 39, 26, 42, 26, 19, 20, 49, 16, 83, 0)
s = 146: (0, 34, 47, 26, 56, 53, 15, 27, 38, 15, 84, 0)
s = 147: (0, 31, 24, 34, 38, 38, 23, 14, 38, 16, 80, 0)
s = 148: (0, 45, 29, 24, 37, 33, 30, 24, 35, 11, 70, 0)
s = 149: (0, 34, 23, 25, 44, 28, 26, 19, 56, 14, 63, 0)
s = 150: (0, 37, 21, 44, 26, 30, 28, 30, 53, 24, 93, 0)
s = 151: (0, 52, 30, 27, 56, 59, 20, 14, 53, 28, 84, 0)
s = 152: (0, 22, 18, 27, 39, 66, 25, 22, 58, 26, 64, 0)
s = 153: (0, 44, 36, 19, 35, 39, 23, 20, 41, 12, 76, 0)
s = 154: (0, 48, 29, 51, 44, 21, 21, 26, 44, 17, 81, 0)
s = 155: (0, 43, 30, 37, 34, 41, 20, 18, 49, 10, 91, 0)
s = 156: (0, 23, 29, 36, 24, 19, 18, 13, 40, 16, 121, 0)
s = 157: (0, 42, 24, 31, 33, 34, 20, 25, 69, 16, 64, 0)
s = 158: (0, 25, 32, 30, 28, 40, 23, 24, 72, 28, 79, 0)
s = 159: (0, 28, 41, 46, 50, 31, 31, 17, 64, 25, 72, 0)
s = 160: (0, 29, 51, 33, 34, 28, 35, 20, 57, 19, 106, 0)
s = 161: (0, 38, 22, 43, 52, 30, 31, 14, 63, 19, 66, 0)
s = 162: (0, 48, 25, 39, 28, 51, 12, 17, 44, 16, 66, 0)
s = 163: (0, 51, 42, 33, 50, 36, 12, 19, 47, 18, 78, 0)
s = 164: (0, 57, 52, 19, 25, 21, 16, 15, 31, 22, 115, 0)
s = 165: (0, 29, 28, 27, 34, 41, 19, 16, 53, 26, 68, 0)
s = 166: (0, 30, 33, 21, 38, 36, 26, 24, 27, 31, 101, 0)
s = 167: (0, 55, 28, 25, 54, 42, 15, 18, 38, 13, 75, 0)
s = 168: (0, 23, 31, 24, 73, 34, 24, 15, 61, 17, 90, 0)
s = 169: (0, 44, 28, 45, 45, 35, 17, 18, 52, 15, 58, 0)
s = 170: (0, 39, 31, 48, 54, 29, 17, 18, 36, 15, 65, 0)
s = 171: (0, 36, 24, 26, 57, 31, 31, 13, 33, 16, 119, 0)
s = 172: (0, 29, 28, 22, 24, 35, 28, 36, 48, 21, 88, 0)
s = 173: (0, 31, 20, 33, 42, 26, 24, 24, 51, 13, 77, 0)
s = 174: (0, 40, 23, 41, 54, 35, 21, 20, 50, 22, 100, 0)
s = 175: (0, 24, 40, 44, 63, 29, 17, 18, 53, 10, 48, 0)
s = 176: (0, 21, 47, 38, 43, 31, 26, 25, 51, 16, 70, 0)
s = 177: (0, 32, 32, 26, 37, 30, 21, 19, 30, 18, 70, 0)
s = 178: (0, 23, 32, 45, 56, 26, 22, 19, 63, 11, 58, 0)
s = 179: (0, 33, 40, 48, 35, 50, 17, 14, 38, 14, 84, 0)
s = 180: (0, 59, 30, 42, 30, 36, 20, 15, 42, 15, 82, 0)
s = 181: (0, 46, 46, 29, 63, 45, 27, 21, 59, 22, 86, 0)
s = 182: (0, 31, 33, 30, 54, 33, 21, 20, 54, 11, 69, 0)
s = 183: (0, 35, 33, 21, 30, 27, 13, 25, 67, 15, 106, 0)
s = 184: (0, 29, 27, 35, 44, 43, 16, 24, 36, 17, 116, 0)
s = 185: (0, 46, 26, 37, 43, 43, 28, 13, 34, 12, 65, 0)
s = 186: (0, 55, 37, 43, 47, 28, 23, 38, 35, 27, 104, 0)
s = 187: (0, 34, 42, 28, 39, 34, 27, 17, 42, 15, 124, 0)
s = 188: (0, 50, 30, 38, 30, 23, 39, 25, 42, 12, 93, 0)
s = 189: (0, 30, 44, 41, 61, 37, 14, 31, 36, 21, 45, 0)
s = 190: (0, 41, 18, 38, 54, 23, 20, 21, 62, 12, 58, 0)
s = 191: (0, 39, 34, 31, 79, 37, 19, 31, 37, 19, 52, 0)
s = 192: (0, 29, 22, 48, 26, 49, 14, 15, 25, 18, 94, 0)
s = 193: (0, 25, 20, 33, 40, 48, 31, 22, 33, 14, 56, 0)
s = 194: (0, 32, 41, 31, 36, 52, 16, 18, 29, 16, 53, 0)
s = 195: (0, 23, 41, 19, 41, 51, 24, 13, 26, 14, 96, 0)
s = 196: (0, 33, 24, 36, 45, 31, 16, 24, 63, 30, 62, 0)
s = 197: (0, 34, 20, 21, 30, 32, 16, 26, 34, 28, 124, 0)
s = 198: (0, 24, 24, 22, 31, 29, 33, 23, 42, 13, 53, 0)
s = 199: (0, 53, 30, 37, 33, 33, 14, 25, 33, 16, 57, 0)
s = 200: (0, 37, 30, 35, 31, 24, 22, 25, 66, 15, 88, 0)
************************************************************************
ES/LS-VALUES:
jobnr.   ES(i)    LS(i)
------------------------------------------------------------------------
  0        0        0
  1        0       48
  2        0       54
  3        0       64
  4        3       52
  5        8       58
  6        3       64
  7       13       64
  8        3       69
  9        8       74
 10       14       66
 11       23       76
************************************************************************
BIG-M-VALUES:
M1 = 17, M2 = 147
************************************************************************
